; benchmark generated from python API
(set-info :status unknown)
(declare-fun cell_1_3 () Int)
(declare-fun cell_1_6 () Int)
(declare-fun cell_2_6 () Int)
(declare-fun cell_2_8 () Int)
(declare-fun cell_3_3 () Int)
(declare-fun cell_3_9 () Int)
(declare-fun cell_4_4 () Int)
(declare-fun cell_4_5 () Int)
(declare-fun cell_5_8 () Int)
(declare-fun cell_6_1 () Int)
(declare-fun cell_7_4 () Int)
(declare-fun cell_8_2 () Int)
(declare-fun cell_9_7 () Int)
(declare-fun cell_1_1 () Int)
(declare-fun cell_2_1 () Int)
(declare-fun cell_3_1 () Int)
(declare-fun cell_4_1 () Int)
(declare-fun cell_5_1 () Int)
(declare-fun cell_7_1 () Int)
(declare-fun cell_8_1 () Int)
(declare-fun cell_9_1 () Int)
(declare-fun cell_1_2 () Int)
(declare-fun cell_2_2 () Int)
(declare-fun cell_3_2 () Int)
(declare-fun cell_4_2 () Int)
(declare-fun cell_5_2 () Int)
(declare-fun cell_6_2 () Int)
(declare-fun cell_7_2 () Int)
(declare-fun cell_9_2 () Int)
(declare-fun cell_2_3 () Int)
(declare-fun cell_4_3 () Int)
(declare-fun cell_5_3 () Int)
(declare-fun cell_6_3 () Int)
(declare-fun cell_7_3 () Int)
(declare-fun cell_8_3 () Int)
(declare-fun cell_9_3 () Int)
(declare-fun cell_1_4 () Int)
(declare-fun cell_2_4 () Int)
(declare-fun cell_3_4 () Int)
(declare-fun cell_5_4 () Int)
(declare-fun cell_6_4 () Int)
(declare-fun cell_8_4 () Int)
(declare-fun cell_9_4 () Int)
(declare-fun cell_1_5 () Int)
(declare-fun cell_2_5 () Int)
(declare-fun cell_3_5 () Int)
(declare-fun cell_5_5 () Int)
(declare-fun cell_6_5 () Int)
(declare-fun cell_7_5 () Int)
(declare-fun cell_8_5 () Int)
(declare-fun cell_9_5 () Int)
(declare-fun cell_3_6 () Int)
(declare-fun cell_4_6 () Int)
(declare-fun cell_5_6 () Int)
(declare-fun cell_6_6 () Int)
(declare-fun cell_7_6 () Int)
(declare-fun cell_8_6 () Int)
(declare-fun cell_9_6 () Int)
(declare-fun cell_1_7 () Int)
(declare-fun cell_2_7 () Int)
(declare-fun cell_3_7 () Int)
(declare-fun cell_4_7 () Int)
(declare-fun cell_5_7 () Int)
(declare-fun cell_6_7 () Int)
(declare-fun cell_7_7 () Int)
(declare-fun cell_8_7 () Int)
(declare-fun cell_1_8 () Int)
(declare-fun cell_3_8 () Int)
(declare-fun cell_4_8 () Int)
(declare-fun cell_6_8 () Int)
(declare-fun cell_7_8 () Int)
(declare-fun cell_8_8 () Int)
(declare-fun cell_9_8 () Int)
(declare-fun cell_1_9 () Int)
(declare-fun cell_2_9 () Int)
(declare-fun cell_4_9 () Int)
(declare-fun cell_5_9 () Int)
(declare-fun cell_6_9 () Int)
(declare-fun cell_7_9 () Int)
(declare-fun cell_8_9 () Int)
(declare-fun cell_9_9 () Int)
(assert
 (= cell_1_3 1))
(assert
 (= cell_1_6 2))
(assert
 (= cell_2_6 1))
(assert
 (= cell_2_8 2))
(assert
 (= cell_3_3 2))
(assert
 (= cell_3_9 1))
(assert
 (= cell_4_4 2))
(assert
 (= cell_4_5 1))
(assert
 (= cell_5_8 1))
(assert
 (= cell_6_1 1))
(assert
 (= cell_7_4 1))
(assert
 (= cell_8_2 1))
(assert
 (= cell_9_7 1))
(assert
 (let (($x404 (= cell_1_1 9)))
 (let (($x948 (= cell_1_1 8)))
 (let (($x902 (= cell_1_1 7)))
 (let (($x1725 (= cell_1_1 6)))
 (let (($x761 (= cell_1_1 5)))
 (let (($x1294 (= cell_1_1 4)))
 (let (($x1719 (= cell_1_1 3)))
 (let (($x1984 (= cell_1_1 2)))
 (let (($x2607 (= cell_1_1 1)))
 (or $x2607 $x1984 $x1719 $x1294 $x761 $x1725 $x902 $x948 $x404)))))))))))
(assert
 (let (($x26 (= cell_2_1 9)))
 (let (($x2727 (= cell_2_1 8)))
 (let (($x189 (= cell_2_1 7)))
 (let (($x103 (= cell_2_1 6)))
 (let (($x1428 (= cell_2_1 5)))
 (let (($x1310 (= cell_2_1 4)))
 (let (($x1753 (= cell_2_1 3)))
 (let (($x912 (= cell_2_1 2)))
 (let (($x1387 (= cell_2_1 1)))
 (or $x1387 $x912 $x1753 $x1310 $x1428 $x103 $x189 $x2727 $x26)))))))))))
(assert
 (let (($x2915 (= cell_3_1 9)))
 (let (($x193 (= cell_3_1 8)))
 (let (($x2519 (= cell_3_1 7)))
 (let (($x2332 (= cell_3_1 6)))
 (let (($x1052 (= cell_3_1 5)))
 (let (($x2323 (= cell_3_1 4)))
 (let (($x3445 (= cell_3_1 3)))
 (let (($x24 (= cell_3_1 2)))
 (let (($x645 (= cell_3_1 1)))
 (or $x645 $x24 $x3445 $x2323 $x1052 $x2332 $x2519 $x193 $x2915)))))))))))
(assert
 (let (($x694 (= cell_4_1 9)))
 (let (($x1850 (= cell_4_1 8)))
 (let (($x413 (= cell_4_1 7)))
 (let (($x2205 (= cell_4_1 6)))
 (let (($x2489 (= cell_4_1 5)))
 (let (($x379 (= cell_4_1 4)))
 (let (($x774 (= cell_4_1 3)))
 (let (($x1616 (= cell_4_1 2)))
 (let (($x475 (= cell_4_1 1)))
 (or $x475 $x1616 $x774 $x379 $x2489 $x2205 $x413 $x1850 $x694)))))))))))
(assert
 (let (($x3492 (= cell_5_1 9)))
 (let (($x2934 (= cell_5_1 8)))
 (let (($x2042 (= cell_5_1 7)))
 (let (($x737 (= cell_5_1 6)))
 (let (($x905 (= cell_5_1 5)))
 (let (($x3814 (= cell_5_1 4)))
 (let (($x2930 (= cell_5_1 3)))
 (let (($x14 (= cell_5_1 2)))
 (let (($x1357 (= cell_5_1 1)))
 (or $x1357 $x14 $x2930 $x3814 $x905 $x737 $x2042 $x2934 $x3492)))))))))))
(assert
 (let (($x1302 (= cell_6_1 1)))
 (or $x1302 (= cell_6_1 2) (= cell_6_1 3) (= cell_6_1 4) (= cell_6_1 5) (= cell_6_1 6) (= cell_6_1 7) (= cell_6_1 8) (= cell_6_1 9))))
(assert
 (let (($x2940 (= cell_7_1 9)))
 (let (($x3021 (= cell_7_1 8)))
 (let (($x2936 (= cell_7_1 7)))
 (let (($x83 (= cell_7_1 6)))
 (let (($x2402 (= cell_7_1 5)))
 (let (($x209 (= cell_7_1 4)))
 (let (($x711 (= cell_7_1 3)))
 (let (($x382 (= cell_7_1 2)))
 (let (($x1710 (= cell_7_1 1)))
 (or $x1710 $x382 $x711 $x209 $x2402 $x83 $x2936 $x3021 $x2940)))))))))))
(assert
 (let (($x2749 (= cell_8_1 9)))
 (let (($x1755 (= cell_8_1 8)))
 (let (($x3783 (= cell_8_1 7)))
 (let (($x326 (= cell_8_1 6)))
 (let (($x486 (= cell_8_1 5)))
 (let (($x2813 (= cell_8_1 4)))
 (let (($x2274 (= cell_8_1 3)))
 (let (($x1599 (= cell_8_1 2)))
 (let (($x697 (= cell_8_1 1)))
 (or $x697 $x1599 $x2274 $x2813 $x486 $x326 $x3783 $x1755 $x2749)))))))))))
(assert
 (let (($x2015 (= cell_9_1 9)))
 (let (($x1748 (= cell_9_1 8)))
 (let (($x505 (= cell_9_1 7)))
 (let (($x1402 (= cell_9_1 6)))
 (let (($x1614 (= cell_9_1 5)))
 (let (($x2869 (= cell_9_1 4)))
 (let (($x1036 (= cell_9_1 3)))
 (let (($x2228 (= cell_9_1 2)))
 (let (($x1315 (= cell_9_1 1)))
 (or $x1315 $x2228 $x1036 $x2869 $x1614 $x1402 $x505 $x1748 $x2015)))))))))))
(assert
 (let (($x1759 (= cell_1_2 9)))
 (let (($x3499 (= cell_1_2 8)))
 (let (($x1660 (= cell_1_2 7)))
 (let (($x1662 (= cell_1_2 6)))
 (let (($x405 (= cell_1_2 5)))
 (let (($x2137 (= cell_1_2 4)))
 (let (($x1962 (= cell_1_2 3)))
 (let (($x1418 (= cell_1_2 2)))
 (let (($x443 (= cell_1_2 1)))
 (or $x443 $x1418 $x1962 $x2137 $x405 $x1662 $x1660 $x3499 $x1759)))))))))))
(assert
 (let (($x2834 (= cell_2_2 9)))
 (let (($x1978 (= cell_2_2 8)))
 (let (($x2512 (= cell_2_2 7)))
 (let (($x969 (= cell_2_2 6)))
 (let (($x242 (= cell_2_2 5)))
 (let (($x1640 (= cell_2_2 4)))
 (let (($x2529 (= cell_2_2 3)))
 (let (($x509 (= cell_2_2 2)))
 (let (($x612 (= cell_2_2 1)))
 (or $x612 $x509 $x2529 $x1640 $x242 $x969 $x2512 $x1978 $x2834)))))))))))
(assert
 (let (($x3402 (= cell_3_2 9)))
 (let (($x2510 (= cell_3_2 8)))
 (let (($x1806 (= cell_3_2 7)))
 (let (($x435 (= cell_3_2 6)))
 (let (($x871 (= cell_3_2 5)))
 (let (($x2214 (= cell_3_2 4)))
 (let (($x1826 (= cell_3_2 3)))
 (let (($x1954 (= cell_3_2 2)))
 (let (($x502 (= cell_3_2 1)))
 (or $x502 $x1954 $x1826 $x2214 $x871 $x435 $x1806 $x2510 $x3402)))))))))))
(assert
 (let (($x1336 (= cell_4_2 9)))
 (let (($x3508 (= cell_4_2 8)))
 (let (($x1946 (= cell_4_2 7)))
 (let (($x1138 (= cell_4_2 6)))
 (let (($x1940 (= cell_4_2 5)))
 (let (($x2844 (= cell_4_2 4)))
 (let (($x434 (= cell_4_2 3)))
 (let (($x945 (= cell_4_2 2)))
 (let (($x182 (= cell_4_2 1)))
 (or $x182 $x945 $x434 $x2844 $x1940 $x1138 $x1946 $x3508 $x1336)))))))))))
(assert
 (let (($x101 (= cell_5_2 9)))
 (let (($x2605 (= cell_5_2 8)))
 (let (($x449 (= cell_5_2 7)))
 (let (($x419 (= cell_5_2 6)))
 (let (($x492 (= cell_5_2 5)))
 (let (($x2487 (= cell_5_2 4)))
 (let (($x629 (= cell_5_2 3)))
 (let (($x1185 (= cell_5_2 2)))
 (let (($x2619 (= cell_5_2 1)))
 (or $x2619 $x1185 $x629 $x2487 $x492 $x419 $x449 $x2605 $x101)))))))))))
(assert
 (let (($x1565 (= cell_6_2 9)))
 (let (($x1628 (= cell_6_2 8)))
 (let (($x373 (= cell_6_2 7)))
 (let (($x2783 (= cell_6_2 6)))
 (let (($x2328 (= cell_6_2 5)))
 (let (($x2454 (= cell_6_2 4)))
 (let (($x869 (= cell_6_2 3)))
 (let (($x1574 (= cell_6_2 2)))
 (let (($x3171 (= cell_6_2 1)))
 (or $x3171 $x1574 $x869 $x2454 $x2328 $x2783 $x373 $x1628 $x1565)))))))))))
(assert
 (let (($x1287 (= cell_7_2 9)))
 (let (($x2114 (= cell_7_2 8)))
 (let (($x1470 (= cell_7_2 7)))
 (let (($x1030 (= cell_7_2 6)))
 (let (($x179 (= cell_7_2 5)))
 (let (($x822 (= cell_7_2 4)))
 (let (($x226 (= cell_7_2 3)))
 (let (($x705 (= cell_7_2 2)))
 (let (($x1750 (= cell_7_2 1)))
 (or $x1750 $x705 $x226 $x822 $x179 $x1030 $x1470 $x2114 $x1287)))))))))))
(assert
 (let (($x2538 (= cell_8_2 1)))
 (or $x2538 (= cell_8_2 2) (= cell_8_2 3) (= cell_8_2 4) (= cell_8_2 5) (= cell_8_2 6) (= cell_8_2 7) (= cell_8_2 8) (= cell_8_2 9))))
(assert
 (let (($x2398 (= cell_9_2 9)))
 (let (($x462 (= cell_9_2 8)))
 (let (($x1995 (= cell_9_2 7)))
 (let (($x1063 (= cell_9_2 6)))
 (let (($x644 (= cell_9_2 5)))
 (let (($x2275 (= cell_9_2 4)))
 (let (($x3512 (= cell_9_2 3)))
 (let (($x2675 (= cell_9_2 2)))
 (let (($x330 (= cell_9_2 1)))
 (or $x330 $x2675 $x3512 $x2275 $x644 $x1063 $x1995 $x462 $x2398)))))))))))
(assert
 (let (($x2365 (= cell_1_3 1)))
 (or $x2365 (= cell_1_3 2) (= cell_1_3 3) (= cell_1_3 4) (= cell_1_3 5) (= cell_1_3 6) (= cell_1_3 7) (= cell_1_3 8) (= cell_1_3 9))))
(assert
 (let (($x1156 (= cell_2_3 9)))
 (let (($x2900 (= cell_2_3 8)))
 (let (($x2622 (= cell_2_3 7)))
 (let (($x930 (= cell_2_3 6)))
 (let (($x1021 (= cell_2_3 5)))
 (let (($x1211 (= cell_2_3 4)))
 (let (($x3245 (= cell_2_3 3)))
 (let (($x2557 (= cell_2_3 2)))
 (let (($x2838 (= cell_2_3 1)))
 (or $x2838 $x2557 $x3245 $x1211 $x1021 $x930 $x2622 $x2900 $x1156)))))))))))
(assert
 (let (($x3601 (= cell_3_3 2)))
 (or (= cell_3_3 1) $x3601 (= cell_3_3 3) (= cell_3_3 4) (= cell_3_3 5) (= cell_3_3 6) (= cell_3_3 7) (= cell_3_3 8) (= cell_3_3 9))))
(assert
 (let (($x2156 (= cell_4_3 9)))
 (let (($x1804 (= cell_4_3 8)))
 (let (($x51 (= cell_4_3 7)))
 (let (($x456 (= cell_4_3 6)))
 (let (($x1883 (= cell_4_3 5)))
 (let (($x412 (= cell_4_3 4)))
 (let (($x515 (= cell_4_3 3)))
 (let (($x2826 (= cell_4_3 2)))
 (let (($x3461 (= cell_4_3 1)))
 (or $x3461 $x2826 $x515 $x412 $x1883 $x456 $x51 $x1804 $x2156)))))))))))
(assert
 (let (($x3089 (= cell_5_3 9)))
 (let (($x1650 (= cell_5_3 8)))
 (let (($x3190 (= cell_5_3 7)))
 (let (($x1509 (= cell_5_3 6)))
 (let (($x1445 (= cell_5_3 5)))
 (let (($x1342 (= cell_5_3 4)))
 (let (($x1462 (= cell_5_3 3)))
 (let (($x794 (= cell_5_3 2)))
 (let (($x741 (= cell_5_3 1)))
 (or $x741 $x794 $x1462 $x1342 $x1445 $x1509 $x3190 $x1650 $x3089)))))))))))
(assert
 (let (($x780 (= cell_6_3 2)))
 (let (($x20 (= cell_6_3 1)))
 (or $x20 $x780 (= cell_6_3 3) (= cell_6_3 4) (= cell_6_3 5) (= cell_6_3 6) (= cell_6_3 7) (= cell_6_3 8) (= cell_6_3 9)))))
(assert
 (let (($x2889 (= cell_7_3 9)))
 (let (($x2048 (= cell_7_3 8)))
 (let (($x1919 (= cell_7_3 7)))
 (let (($x2893 (= cell_7_3 6)))
 (let (($x1882 (= cell_7_3 5)))
 (let (($x2352 (= cell_7_3 4)))
 (let (($x2816 (= cell_7_3 3)))
 (let (($x3278 (= cell_7_3 2)))
 (let (($x730 (= cell_7_3 1)))
 (or $x730 $x3278 $x2816 $x2352 $x1882 $x2893 $x1919 $x2048 $x2889)))))))))))
(assert
 (let (($x2705 (= cell_8_3 2)))
 (let (($x1657 (= cell_8_3 1)))
 (or $x1657 $x2705 (= cell_8_3 3) (= cell_8_3 4) (= cell_8_3 5) (= cell_8_3 6) (= cell_8_3 7) (= cell_8_3 8) (= cell_8_3 9)))))
(assert
 (let (($x1420 (= cell_9_3 9)))
 (let (($x2597 (= cell_9_3 8)))
 (let (($x1802 (= cell_9_3 7)))
 (let (($x1595 (= cell_9_3 6)))
 (let (($x2904 (= cell_9_3 5)))
 (let (($x2421 (= cell_9_3 4)))
 (let (($x1260 (= cell_9_3 3)))
 (let (($x525 (= cell_9_3 2)))
 (let (($x2596 (= cell_9_3 1)))
 (or $x2596 $x525 $x1260 $x2421 $x2904 $x1595 $x1802 $x2597 $x1420)))))))))))
(assert
 (let (($x2206 (= cell_1_4 9)))
 (let (($x1108 (= cell_1_4 8)))
 (let (($x94 (= cell_1_4 7)))
 (let (($x2918 (= cell_1_4 6)))
 (let (($x2985 (= cell_1_4 5)))
 (let (($x674 (= cell_1_4 4)))
 (let (($x2431 (= cell_1_4 3)))
 (let (($x2337 (= cell_1_4 2)))
 (let (($x2343 (= cell_1_4 1)))
 (or $x2343 $x2337 $x2431 $x674 $x2985 $x2918 $x94 $x1108 $x2206)))))))))))
(assert
 (let (($x1846 (= cell_2_4 9)))
 (let (($x1171 (= cell_2_4 8)))
 (let (($x1991 (= cell_2_4 7)))
 (let (($x3435 (= cell_2_4 6)))
 (let (($x3521 (= cell_2_4 5)))
 (let (($x244 (= cell_2_4 4)))
 (let (($x1911 (= cell_2_4 3)))
 (let (($x2790 (= cell_2_4 2)))
 (let (($x1259 (= cell_2_4 1)))
 (or $x1259 $x2790 $x1911 $x244 $x3521 $x3435 $x1991 $x1171 $x1846)))))))))))
(assert
 (let (($x2614 (= cell_3_4 9)))
 (let (($x2590 (= cell_3_4 8)))
 (let (($x2584 (= cell_3_4 7)))
 (let (($x1344 (= cell_3_4 6)))
 (let (($x3507 (= cell_3_4 5)))
 (let (($x1900 (= cell_3_4 4)))
 (let (($x3242 (= cell_3_4 3)))
 (let (($x296 (= cell_3_4 2)))
 (let (($x5 (= cell_3_4 1)))
 (or $x5 $x296 $x3242 $x1900 $x3507 $x1344 $x2584 $x2590 $x2614)))))))))))
(assert
 (let (($x749 (= cell_4_4 2)))
 (or (= cell_4_4 1) $x749 (= cell_4_4 3) (= cell_4_4 4) (= cell_4_4 5) (= cell_4_4 6) (= cell_4_4 7) (= cell_4_4 8) (= cell_4_4 9))))
(assert
 (let (($x2071 (= cell_5_4 9)))
 (let (($x1500 (= cell_5_4 8)))
 (let (($x920 (= cell_5_4 7)))
 (let (($x2280 (= cell_5_4 6)))
 (let (($x2735 (= cell_5_4 5)))
 (let (($x3239 (= cell_5_4 4)))
 (let (($x915 (= cell_5_4 3)))
 (let (($x338 (= cell_5_4 2)))
 (let (($x1837 (= cell_5_4 1)))
 (or $x1837 $x338 $x915 $x3239 $x2735 $x2280 $x920 $x1500 $x2071)))))))))))
(assert
 (let (($x2873 (= cell_6_4 9)))
 (let (($x2255 (= cell_6_4 8)))
 (let (($x1290 (= cell_6_4 7)))
 (let (($x169 (= cell_6_4 6)))
 (let (($x1374 (= cell_6_4 5)))
 (let (($x1240 (= cell_6_4 4)))
 (let (($x1488 (= cell_6_4 3)))
 (let (($x3448 (= cell_6_4 2)))
 (let (($x1192 (= cell_6_4 1)))
 (or $x1192 $x3448 $x1488 $x1240 $x1374 $x169 $x1290 $x2255 $x2873)))))))))))
(assert
 (let (($x1727 (= cell_7_4 1)))
 (or $x1727 (= cell_7_4 2) (= cell_7_4 3) (= cell_7_4 4) (= cell_7_4 5) (= cell_7_4 6) (= cell_7_4 7) (= cell_7_4 8) (= cell_7_4 9))))
(assert
 (let (($x2631 (= cell_8_4 2)))
 (let (($x1548 (= cell_8_4 1)))
 (or $x1548 $x2631 (= cell_8_4 3) (= cell_8_4 4) (= cell_8_4 5) (= cell_8_4 6) (= cell_8_4 7) (= cell_8_4 8) (= cell_8_4 9)))))
(assert
 (let (($x1359 (= cell_9_4 9)))
 (let (($x1095 (= cell_9_4 8)))
 (let (($x2890 (= cell_9_4 7)))
 (let (($x1469 (= cell_9_4 6)))
 (let (($x3429 (= cell_9_4 5)))
 (let (($x1559 (= cell_9_4 4)))
 (let (($x2360 (= cell_9_4 3)))
 (let (($x2063 (= cell_9_4 2)))
 (let (($x1485 (= cell_9_4 1)))
 (or $x1485 $x2063 $x2360 $x1559 $x3429 $x1469 $x2890 $x1095 $x1359)))))))))))
(assert
 (let (($x2030 (= cell_1_5 9)))
 (let (($x124 (= cell_1_5 8)))
 (let (($x1414 (= cell_1_5 7)))
 (let (($x2514 (= cell_1_5 6)))
 (let (($x1909 (= cell_1_5 5)))
 (let (($x1011 (= cell_1_5 4)))
 (let (($x990 (= cell_1_5 3)))
 (let (($x1375 (= cell_1_5 2)))
 (let (($x3712 (= cell_1_5 1)))
 (or $x3712 $x1375 $x990 $x1011 $x1909 $x2514 $x1414 $x124 $x2030)))))))))))
(assert
 (let (($x2646 (= cell_2_5 9)))
 (let (($x2892 (= cell_2_5 8)))
 (let (($x1338 (= cell_2_5 7)))
 (let (($x1668 (= cell_2_5 6)))
 (let (($x3713 (= cell_2_5 5)))
 (let (($x890 (= cell_2_5 4)))
 (let (($x482 (= cell_2_5 3)))
 (let (($x1835 (= cell_2_5 2)))
 (let (($x1764 (= cell_2_5 1)))
 (or $x1764 $x1835 $x482 $x890 $x3713 $x1668 $x1338 $x2892 $x2646)))))))))))
(assert
 (let (($x2080 (= cell_3_5 9)))
 (let (($x2341 (= cell_3_5 8)))
 (let (($x1685 (= cell_3_5 7)))
 (let (($x654 (= cell_3_5 6)))
 (let (($x2565 (= cell_3_5 5)))
 (let (($x2419 (= cell_3_5 4)))
 (let (($x987 (= cell_3_5 3)))
 (let (($x2351 (= cell_3_5 2)))
 (let (($x2779 (= cell_3_5 1)))
 (or $x2779 $x2351 $x987 $x2419 $x2565 $x654 $x1685 $x2341 $x2080)))))))))))
(assert
 (let (($x2290 (= cell_4_5 1)))
 (or $x2290 (= cell_4_5 2) (= cell_4_5 3) (= cell_4_5 4) (= cell_4_5 5) (= cell_4_5 6) (= cell_4_5 7) (= cell_4_5 8) (= cell_4_5 9))))
(assert
 (let (($x53 (= cell_5_5 9)))
 (let (($x2092 (= cell_5_5 8)))
 (let (($x1828 (= cell_5_5 7)))
 (let (($x1745 (= cell_5_5 6)))
 (let (($x3121 (= cell_5_5 5)))
 (let (($x2845 (= cell_5_5 4)))
 (let (($x888 (= cell_5_5 3)))
 (let (($x2533 (= cell_5_5 2)))
 (let (($x727 (= cell_5_5 1)))
 (or $x727 $x2533 $x888 $x2845 $x3121 $x1745 $x1828 $x2092 $x53)))))))))))
(assert
 (let (($x1403 (= cell_6_5 9)))
 (let (($x2265 (= cell_6_5 8)))
 (let (($x2358 (= cell_6_5 7)))
 (let (($x1706 (= cell_6_5 6)))
 (let (($x556 (= cell_6_5 5)))
 (let (($x2182 (= cell_6_5 4)))
 (let (($x171 (= cell_6_5 3)))
 (let (($x1999 (= cell_6_5 2)))
 (let (($x2283 (= cell_6_5 1)))
 (or $x2283 $x1999 $x171 $x2182 $x556 $x1706 $x2358 $x2265 $x1403)))))))))))
(assert
 (let (($x1118 (= cell_7_5 1)))
 (or $x1118 (= cell_7_5 2) (= cell_7_5 3) (= cell_7_5 4) (= cell_7_5 5) (= cell_7_5 6) (= cell_7_5 7) (= cell_7_5 8) (= cell_7_5 9))))
(assert
 (let (($x75 (= cell_8_5 1)))
 (or $x75 (= cell_8_5 2) (= cell_8_5 3) (= cell_8_5 4) (= cell_8_5 5) (= cell_8_5 6) (= cell_8_5 7) (= cell_8_5 8) (= cell_8_5 9))))
(assert
 (let (($x395 (= cell_9_5 9)))
 (let (($x2563 (= cell_9_5 8)))
 (let (($x867 (= cell_9_5 7)))
 (let (($x202 (= cell_9_5 6)))
 (let (($x1551 (= cell_9_5 5)))
 (let (($x157 (= cell_9_5 4)))
 (let (($x3847 (= cell_9_5 3)))
 (let (($x1720 (= cell_9_5 2)))
 (let (($x2127 (= cell_9_5 1)))
 (or $x2127 $x1720 $x3847 $x157 $x1551 $x202 $x867 $x2563 $x395)))))))))))
(assert
 (let (($x2109 (= cell_1_6 2)))
 (or (= cell_1_6 1) $x2109 (= cell_1_6 3) (= cell_1_6 4) (= cell_1_6 5) (= cell_1_6 6) (= cell_1_6 7) (= cell_1_6 8) (= cell_1_6 9))))
(assert
 (let (($x550 (= cell_2_6 1)))
 (or $x550 (= cell_2_6 2) (= cell_2_6 3) (= cell_2_6 4) (= cell_2_6 5) (= cell_2_6 6) (= cell_2_6 7) (= cell_2_6 8) (= cell_2_6 9))))
(assert
 (let (($x1330 (= cell_3_6 9)))
 (let (($x1422 (= cell_3_6 8)))
 (let (($x380 (= cell_3_6 7)))
 (let (($x2086 (= cell_3_6 6)))
 (let (($x111 (= cell_3_6 5)))
 (let (($x729 (= cell_3_6 4)))
 (let (($x459 (= cell_3_6 3)))
 (let (($x604 (= cell_3_6 2)))
 (let (($x220 (= cell_3_6 1)))
 (or $x220 $x604 $x459 $x729 $x111 $x2086 $x380 $x1422 $x1330)))))))))))
(assert
 (let (($x3215 (= cell_4_6 2)))
 (let (($x702 (= cell_4_6 1)))
 (or $x702 $x3215 (= cell_4_6 3) (= cell_4_6 4) (= cell_4_6 5) (= cell_4_6 6) (= cell_4_6 7) (= cell_4_6 8) (= cell_4_6 9)))))
(assert
 (let (($x367 (= cell_5_6 9)))
 (let (($x842 (= cell_5_6 8)))
 (let (($x1841 (= cell_5_6 7)))
 (let (($x723 (= cell_5_6 6)))
 (let (($x2383 (= cell_5_6 5)))
 (let (($x2113 (= cell_5_6 4)))
 (let (($x1540 (= cell_5_6 3)))
 (let (($x1116 (= cell_5_6 2)))
 (let (($x3731 (= cell_5_6 1)))
 (or $x3731 $x1116 $x1540 $x2113 $x2383 $x723 $x1841 $x842 $x367)))))))))))
(assert
 (let (($x262 (= cell_6_6 2)))
 (let (($x1729 (= cell_6_6 1)))
 (or $x1729 $x262 (= cell_6_6 3) (= cell_6_6 4) (= cell_6_6 5) (= cell_6_6 6) (= cell_6_6 7) (= cell_6_6 8) (= cell_6_6 9)))))
(assert
 (let (($x2258 (= cell_7_6 2)))
 (let (($x950 (= cell_7_6 1)))
 (or $x950 $x2258 (= cell_7_6 3) (= cell_7_6 4) (= cell_7_6 5) (= cell_7_6 6) (= cell_7_6 7) (= cell_7_6 8) (= cell_7_6 9)))))
(assert
 (let (($x2197 (= cell_8_6 2)))
 (let (($x1944 (= cell_8_6 1)))
 (or $x1944 $x2197 (= cell_8_6 3) (= cell_8_6 4) (= cell_8_6 5) (= cell_8_6 6) (= cell_8_6 7) (= cell_8_6 8) (= cell_8_6 9)))))
(assert
 (let (($x1941 (= cell_9_6 9)))
 (let (($x3663 (= cell_9_6 8)))
 (let (($x1935 (= cell_9_6 7)))
 (let (($x1818 (= cell_9_6 6)))
 (let (($x1673 (= cell_9_6 5)))
 (let (($x803 (= cell_9_6 4)))
 (let (($x1894 (= cell_9_6 3)))
 (let (($x480 (= cell_9_6 2)))
 (let (($x2022 (= cell_9_6 1)))
 (or $x2022 $x480 $x1894 $x803 $x1673 $x1818 $x1935 $x3663 $x1941)))))))))))
(assert
 (let (($x1312 (= cell_1_7 9)))
 (let (($x1765 (= cell_1_7 8)))
 (let (($x1292 (= cell_1_7 7)))
 (let (($x916 (= cell_1_7 6)))
 (let (($x2773 (= cell_1_7 5)))
 (let (($x269 (= cell_1_7 4)))
 (let (($x2366 (= cell_1_7 3)))
 (let (($x1893 (= cell_1_7 2)))
 (let (($x1791 (= cell_1_7 1)))
 (or $x1791 $x1893 $x2366 $x269 $x2773 $x916 $x1292 $x1765 $x1312)))))))))))
(assert
 (let (($x1025 (= cell_2_7 9)))
 (let (($x528 (= cell_2_7 8)))
 (let (($x2316 (= cell_2_7 7)))
 (let (($x2855 (= cell_2_7 6)))
 (let (($x1365 (= cell_2_7 5)))
 (let (($x889 (= cell_2_7 4)))
 (let (($x627 (= cell_2_7 3)))
 (let (($x1950 (= cell_2_7 2)))
 (let (($x746 (= cell_2_7 1)))
 (or $x746 $x1950 $x627 $x889 $x1365 $x2855 $x2316 $x528 $x1025)))))))))))
(assert
 (let (($x1878 (= cell_3_7 9)))
 (let (($x906 (= cell_3_7 8)))
 (let (($x1224 (= cell_3_7 7)))
 (let (($x2371 (= cell_3_7 6)))
 (let (($x2016 (= cell_3_7 5)))
 (let (($x440 (= cell_3_7 4)))
 (let (($x1789 (= cell_3_7 3)))
 (let (($x80 (= cell_3_7 2)))
 (let (($x951 (= cell_3_7 1)))
 (or $x951 $x80 $x1789 $x440 $x2016 $x2371 $x1224 $x906 $x1878)))))))))))
(assert
 (let (($x594 (= cell_4_7 9)))
 (let (($x3202 (= cell_4_7 8)))
 (let (($x591 (= cell_4_7 7)))
 (let (($x3205 (= cell_4_7 6)))
 (let (($x1621 (= cell_4_7 5)))
 (let (($x2481 (= cell_4_7 4)))
 (let (($x2372 (= cell_4_7 3)))
 (let (($x3456 (= cell_4_7 2)))
 (let (($x1772 (= cell_4_7 1)))
 (or $x1772 $x3456 $x2372 $x2481 $x1621 $x3205 $x591 $x3202 $x594)))))))))))
(assert
 (let (($x870 (= cell_5_7 9)))
 (let (($x160 (= cell_5_7 8)))
 (let (($x3676 (= cell_5_7 7)))
 (let (($x1170 (= cell_5_7 6)))
 (let (($x2733 (= cell_5_7 5)))
 (let (($x778 (= cell_5_7 4)))
 (let (($x407 (= cell_5_7 3)))
 (let (($x2385 (= cell_5_7 2)))
 (let (($x1525 (= cell_5_7 1)))
 (or $x1525 $x2385 $x407 $x778 $x2733 $x1170 $x3676 $x160 $x870)))))))))))
(assert
 (let (($x2840 (= cell_6_7 9)))
 (let (($x425 (= cell_6_7 8)))
 (let (($x2885 (= cell_6_7 7)))
 (let (($x176 (= cell_6_7 6)))
 (let (($x590 (= cell_6_7 5)))
 (let (($x1154 (= cell_6_7 4)))
 (let (($x557 (= cell_6_7 3)))
 (let (($x450 (= cell_6_7 2)))
 (let (($x1613 (= cell_6_7 1)))
 (or $x1613 $x450 $x557 $x1154 $x590 $x176 $x2885 $x425 $x2840)))))))))))
(assert
 (let (($x1033 (= cell_7_7 9)))
 (let (($x2827 (= cell_7_7 8)))
 (let (($x574 (= cell_7_7 7)))
 (let (($x2810 (= cell_7_7 6)))
 (let (($x89 (= cell_7_7 5)))
 (let (($x1195 (= cell_7_7 4)))
 (let (($x2291 (= cell_7_7 3)))
 (let (($x1643 (= cell_7_7 2)))
 (let (($x2858 (= cell_7_7 1)))
 (or $x2858 $x1643 $x2291 $x1195 $x89 $x2810 $x574 $x2827 $x1033)))))))))))
(assert
 (let (($x2898 (= cell_8_7 9)))
 (let (($x3528 (= cell_8_7 8)))
 (let (($x1697 (= cell_8_7 7)))
 (let (($x1541 (= cell_8_7 6)))
 (let (($x2723 (= cell_8_7 5)))
 (let (($x287 (= cell_8_7 4)))
 (let (($x642 (= cell_8_7 3)))
 (let (($x728 (= cell_8_7 2)))
 (let (($x1585 (= cell_8_7 1)))
 (or $x1585 $x728 $x642 $x287 $x2723 $x1541 $x1697 $x3528 $x2898)))))))))))
(assert
 (let (($x1493 (= cell_9_7 1)))
 (or $x1493 (= cell_9_7 2) (= cell_9_7 3) (= cell_9_7 4) (= cell_9_7 5) (= cell_9_7 6) (= cell_9_7 7) (= cell_9_7 8) (= cell_9_7 9))))
(assert
 (let (($x325 (= cell_1_8 9)))
 (let (($x3850 (= cell_1_8 8)))
 (let (($x788 (= cell_1_8 7)))
 (let (($x887 (= cell_1_8 6)))
 (let (($x2630 (= cell_1_8 5)))
 (let (($x974 (= cell_1_8 4)))
 (let (($x1504 (= cell_1_8 3)))
 (let (($x1840 (= cell_1_8 2)))
 (let (($x1058 (= cell_1_8 1)))
 (or $x1058 $x1840 $x1504 $x974 $x2630 $x887 $x788 $x3850 $x325)))))))))))
(assert
 (let (($x1659 (= cell_2_8 2)))
 (or (= cell_2_8 1) $x1659 (= cell_2_8 3) (= cell_2_8 4) (= cell_2_8 5) (= cell_2_8 6) (= cell_2_8 7) (= cell_2_8 8) (= cell_2_8 9))))
(assert
 (let (($x563 (= cell_3_8 9)))
 (let (($x2570 (= cell_3_8 8)))
 (let (($x701 (= cell_3_8 7)))
 (let (($x693 (= cell_3_8 6)))
 (let (($x1758 (= cell_3_8 5)))
 (let (($x2045 (= cell_3_8 4)))
 (let (($x2759 (= cell_3_8 3)))
 (let (($x115 (= cell_3_8 2)))
 (let (($x2824 (= cell_3_8 1)))
 (or $x2824 $x115 $x2759 $x2045 $x1758 $x693 $x701 $x2570 $x563)))))))))))
(assert
 (let (($x1466 (= cell_4_8 9)))
 (let (($x2910 (= cell_4_8 8)))
 (let (($x2882 (= cell_4_8 7)))
 (let (($x2919 (= cell_4_8 6)))
 (let (($x1381 (= cell_4_8 5)))
 (let (($x76 (= cell_4_8 4)))
 (let (($x2144 (= cell_4_8 3)))
 (let (($x233 (= cell_4_8 2)))
 (let (($x3186 (= cell_4_8 1)))
 (or $x3186 $x233 $x2144 $x76 $x1381 $x2919 $x2882 $x2910 $x1466)))))))))))
(assert
 (let (($x589 (= cell_5_8 1)))
 (or $x589 (= cell_5_8 2) (= cell_5_8 3) (= cell_5_8 4) (= cell_5_8 5) (= cell_5_8 6) (= cell_5_8 7) (= cell_5_8 8) (= cell_5_8 9))))
(assert
 (let (($x1535 (= cell_6_8 2)))
 (let (($x1519 (= cell_6_8 1)))
 (or $x1519 $x1535 (= cell_6_8 3) (= cell_6_8 4) (= cell_6_8 5) (= cell_6_8 6) (= cell_6_8 7) (= cell_6_8 8) (= cell_6_8 9)))))
(assert
 (let (($x1311 (= cell_7_8 9)))
 (let (($x63 (= cell_7_8 8)))
 (let (($x2960 (= cell_7_8 7)))
 (let (($x479 (= cell_7_8 6)))
 (let (($x1048 (= cell_7_8 5)))
 (let (($x821 (= cell_7_8 4)))
 (let (($x760 (= cell_7_8 3)))
 (let (($x2027 (= cell_7_8 2)))
 (let (($x894 (= cell_7_8 1)))
 (or $x894 $x2027 $x760 $x821 $x1048 $x479 $x2960 $x63 $x1311)))))))))))
(assert
 (let (($x60 (= cell_8_8 9)))
 (let (($x442 (= cell_8_8 8)))
 (let (($x467 (= cell_8_8 7)))
 (let (($x2315 (= cell_8_8 6)))
 (let (($x691 (= cell_8_8 5)))
 (let (($x1957 (= cell_8_8 4)))
 (let (($x1547 (= cell_8_8 3)))
 (let (($x1018 (= cell_8_8 2)))
 (let (($x1600 (= cell_8_8 1)))
 (or $x1600 $x1018 $x1547 $x1957 $x691 $x2315 $x467 $x442 $x60)))))))))))
(assert
 (let (($x2592 (= cell_9_8 2)))
 (let (($x2618 (= cell_9_8 1)))
 (or $x2618 $x2592 (= cell_9_8 3) (= cell_9_8 4) (= cell_9_8 5) (= cell_9_8 6) (= cell_9_8 7) (= cell_9_8 8) (= cell_9_8 9)))))
(assert
 (let (($x159 (= cell_1_9 9)))
 (let (($x2138 (= cell_1_9 8)))
 (let (($x116 (= cell_1_9 7)))
 (let (($x1955 (= cell_1_9 6)))
 (let (($x2993 (= cell_1_9 5)))
 (let (($x2272 (= cell_1_9 4)))
 (let (($x2108 (= cell_1_9 3)))
 (let (($x1201 (= cell_1_9 2)))
 (let (($x1647 (= cell_1_9 1)))
 (or $x1647 $x1201 $x2108 $x2272 $x2993 $x1955 $x116 $x2138 $x159)))))))))))
(assert
 (let (($x2208 (= cell_2_9 9)))
 (let (($x1099 (= cell_2_9 8)))
 (let (($x2479 (= cell_2_9 7)))
 (let (($x724 (= cell_2_9 6)))
 (let (($x2765 (= cell_2_9 5)))
 (let (($x210 (= cell_2_9 4)))
 (let (($x1274 (= cell_2_9 3)))
 (let (($x1269 (= cell_2_9 2)))
 (let (($x1150 (= cell_2_9 1)))
 (or $x1150 $x1269 $x1274 $x210 $x2765 $x724 $x2479 $x1099 $x2208)))))))))))
(assert
 (let (($x2324 (= cell_3_9 1)))
 (or $x2324 (= cell_3_9 2) (= cell_3_9 3) (= cell_3_9 4) (= cell_3_9 5) (= cell_3_9 6) (= cell_3_9 7) (= cell_3_9 8) (= cell_3_9 9))))
(assert
 (let (($x2125 (= cell_4_9 9)))
 (let (($x144 (= cell_4_9 8)))
 (let (($x1506 (= cell_4_9 7)))
 (let (($x579 (= cell_4_9 6)))
 (let (($x483 (= cell_4_9 5)))
 (let (($x1050 (= cell_4_9 4)))
 (let (($x257 (= cell_4_9 3)))
 (let (($x1086 (= cell_4_9 2)))
 (let (($x2136 (= cell_4_9 1)))
 (or $x2136 $x1086 $x257 $x1050 $x483 $x579 $x1506 $x144 $x2125)))))))))))
(assert
 (let (($x2484 (= cell_5_9 1)))
 (or $x2484 (= cell_5_9 2) (= cell_5_9 3) (= cell_5_9 4) (= cell_5_9 5) (= cell_5_9 6) (= cell_5_9 7) (= cell_5_9 8) (= cell_5_9 9))))
(assert
 (let (($x1366 (= cell_6_9 1)))
 (or $x1366 (= cell_6_9 2) (= cell_6_9 3) (= cell_6_9 4) (= cell_6_9 5) (= cell_6_9 6) (= cell_6_9 7) (= cell_6_9 8) (= cell_6_9 9))))
(assert
 (let (($x558 (= cell_7_9 9)))
 (let (($x2032 (= cell_7_9 8)))
 (let (($x2543 (= cell_7_9 7)))
 (let (($x2497 (= cell_7_9 6)))
 (let (($x1373 (= cell_7_9 5)))
 (let (($x350 (= cell_7_9 4)))
 (let (($x1489 (= cell_7_9 3)))
 (let (($x1656 (= cell_7_9 2)))
 (let (($x2242 (= cell_7_9 1)))
 (or $x2242 $x1656 $x1489 $x350 $x1373 $x2497 $x2543 $x2032 $x558)))))))))))
(assert
 (let (($x139 (= cell_8_9 9)))
 (let (($x2505 (= cell_8_9 8)))
 (let (($x2752 (= cell_8_9 7)))
 (let (($x484 (= cell_8_9 6)))
 (let (($x3246 (= cell_8_9 5)))
 (let (($x3766 (= cell_8_9 4)))
 (let (($x1010 (= cell_8_9 3)))
 (let (($x1364 (= cell_8_9 2)))
 (let (($x1704 (= cell_8_9 1)))
 (or $x1704 $x1364 $x1010 $x3766 $x3246 $x484 $x2752 $x2505 $x139)))))))))))
(assert
 (let (($x500 (= cell_9_9 1)))
 (or $x500 (= cell_9_9 2) (= cell_9_9 3) (= cell_9_9 4) (= cell_9_9 5) (= cell_9_9 6) (= cell_9_9 7) (= cell_9_9 8) (= cell_9_9 9))))
(assert
 (and (distinct cell_1_1 cell_1_2 cell_1_3 cell_1_4 cell_1_5 cell_1_6 cell_1_7 cell_1_8 cell_1_9) true))
(assert
 (and (distinct cell_2_1 cell_2_2 cell_2_3 cell_2_4 cell_2_5 cell_2_6 cell_2_7 cell_2_8 cell_2_9) true))
(assert
 (and (distinct cell_3_1 cell_3_2 cell_3_3 cell_3_4 cell_3_5 cell_3_6 cell_3_7 cell_3_8 cell_3_9) true))
(assert
 (and (distinct cell_4_1 cell_4_2 cell_4_3 cell_4_4 cell_4_5 cell_4_6 cell_4_7 cell_4_8 cell_4_9) true))
(assert
 (and (distinct cell_5_1 cell_5_2 cell_5_3 cell_5_4 cell_5_5 cell_5_6 cell_5_7 cell_5_8 cell_5_9) true))
(assert
 (and (distinct cell_6_1 cell_6_2 cell_6_3 cell_6_4 cell_6_5 cell_6_6 cell_6_7 cell_6_8 cell_6_9) true))
(assert
 (and (distinct cell_7_1 cell_7_2 cell_7_3 cell_7_4 cell_7_5 cell_7_6 cell_7_7 cell_7_8 cell_7_9) true))
(assert
 (and (distinct cell_8_1 cell_8_2 cell_8_3 cell_8_4 cell_8_5 cell_8_6 cell_8_7 cell_8_8 cell_8_9) true))
(assert
 (and (distinct cell_9_1 cell_9_2 cell_9_3 cell_9_4 cell_9_5 cell_9_6 cell_9_7 cell_9_8 cell_9_9) true))
(assert
 (and (distinct cell_1_1 cell_2_1 cell_3_1 cell_4_1 cell_5_1 cell_6_1 cell_7_1 cell_8_1 cell_9_1) true))
(assert
 (and (distinct cell_1_2 cell_2_2 cell_3_2 cell_4_2 cell_5_2 cell_6_2 cell_7_2 cell_8_2 cell_9_2) true))
(assert
 (and (distinct cell_1_3 cell_2_3 cell_3_3 cell_4_3 cell_5_3 cell_6_3 cell_7_3 cell_8_3 cell_9_3) true))
(assert
 (and (distinct cell_1_4 cell_2_4 cell_3_4 cell_4_4 cell_5_4 cell_6_4 cell_7_4 cell_8_4 cell_9_4) true))
(assert
 (and (distinct cell_1_5 cell_2_5 cell_3_5 cell_4_5 cell_5_5 cell_6_5 cell_7_5 cell_8_5 cell_9_5) true))
(assert
 (and (distinct cell_1_6 cell_2_6 cell_3_6 cell_4_6 cell_5_6 cell_6_6 cell_7_6 cell_8_6 cell_9_6) true))
(assert
 (and (distinct cell_1_7 cell_2_7 cell_3_7 cell_4_7 cell_5_7 cell_6_7 cell_7_7 cell_8_7 cell_9_7) true))
(assert
 (and (distinct cell_1_8 cell_2_8 cell_3_8 cell_4_8 cell_5_8 cell_6_8 cell_7_8 cell_8_8 cell_9_8) true))
(assert
 (and (distinct cell_1_9 cell_2_9 cell_3_9 cell_4_9 cell_5_9 cell_6_9 cell_7_9 cell_8_9 cell_9_9) true))
(assert
 (and (distinct cell_1_1 cell_1_2 cell_1_3 cell_2_1 cell_2_2 cell_2_3 cell_3_1 cell_3_2 cell_3_3) true))
(assert
 (and (distinct cell_1_4 cell_1_5 cell_1_6 cell_2_4 cell_2_5 cell_2_6 cell_3_4 cell_3_5 cell_3_6) true))
(assert
 (and (distinct cell_1_7 cell_1_8 cell_1_9 cell_2_7 cell_2_8 cell_2_9 cell_3_7 cell_3_8 cell_3_9) true))
(assert
 (and (distinct cell_4_1 cell_4_2 cell_4_3 cell_5_1 cell_5_2 cell_5_3 cell_6_1 cell_6_2 cell_6_3) true))
(assert
 (and (distinct cell_4_4 cell_4_5 cell_4_6 cell_5_4 cell_5_5 cell_5_6 cell_6_4 cell_6_5 cell_6_6) true))
(assert
 (and (distinct cell_4_7 cell_4_8 cell_4_9 cell_5_7 cell_5_8 cell_5_9 cell_6_7 cell_6_8 cell_6_9) true))
(assert
 (and (distinct cell_7_1 cell_7_2 cell_7_3 cell_8_1 cell_8_2 cell_8_3 cell_9_1 cell_9_2 cell_9_3) true))
(assert
 (and (distinct cell_7_4 cell_7_5 cell_7_6 cell_8_4 cell_8_5 cell_8_6 cell_9_4 cell_9_5 cell_9_6) true))
(assert
 (and (distinct cell_7_7 cell_7_8 cell_7_9 cell_8_7 cell_8_8 cell_8_9 cell_9_7 cell_9_8 cell_9_9) true))
(assert
 (let (($x1003 (and (distinct cell_5_9 cell_6_8 cell_7_7 cell_8_6) true)))
 (let (($x3763 (and (distinct cell_2_9 cell_3_8 cell_4_7 cell_5_6 cell_6_5 cell_7_4 cell_8_3 cell_9_2) true)))
 (let (($x1698 (and (distinct cell_1_8 cell_2_7 cell_3_6 cell_4_5 cell_5_4 cell_6_3 cell_7_2 cell_8_1) true)))
 (let (($x3627 (and (distinct cell_1_5 cell_2_4 cell_3_3 cell_4_2) true)))
 (let (($x2083 (and (distinct cell_5_1 cell_6_2 cell_7_3 cell_8_4) true)))
 (let (($x1090 (and (distinct cell_2_1 cell_3_2 cell_4_3 cell_5_4 cell_6_5 cell_7_6 cell_8_7 cell_9_8) true)))
 (let (($x1830 (and (distinct cell_1_2 cell_2_3 cell_3_4 cell_4_5 cell_5_6 cell_6_7 cell_7_8 cell_8_9) true)))
 (let (($x3820 (and (distinct cell_1_5 cell_2_6 cell_3_7 cell_4_8) true)))
 (and $x3820 $x1830 $x1090 $x2083 $x3627 $x1698 $x3763 $x1003))))))))))
(assert
 (= cell_5_1 2))
(check-sat)
